GLPSOL--GLPK LP/MIP Solver 5.0
Parameter(s) specified in the command line:
 --lp ../modeles/4_429.lp --log 4_429.log
Reading problem data from '../modeles/4_429.lp'...
1733 rows, 3440 columns, 12032 non-zeros
1716 integer variables, all of which are binary
5183 lines were read
GLPK Integer Optimizer 5.0
1733 rows, 3440 columns, 12032 non-zeros
1716 integer variables, all of which are binary
Preprocessing...
1704 constraint coefficient(s) were reduced
1733 rows, 3436 columns, 12028 non-zeros
1716 integer variables, all of which are binary
Scaling...
 A: min|aij| =  2.173e-05  max|aij| =  4.000e+00  ratio =  1.840e+05
GM: min|aij| =  4.828e-02  max|aij| =  2.071e+01  ratio =  4.290e+02
EQ: min|aij| =  2.331e-03  max|aij| =  1.000e+00  ratio =  4.290e+02
2N: min|aij| =  1.953e-03  max|aij| =  1.764e+00  ratio =  9.032e+02
Constructing initial basis...
Size of triangular part is 1733
Solving LP relaxation...
GLPK Simplex Optimizer 5.0
1733 rows, 3436 columns, 12028 non-zeros
      0: obj =   8.000000000e+00 inf =   1.950e+01 (9)
     91: obj =   4.999592480e-01 inf =   0.000e+00 (0)
*   307: obj =  -1.999962229e+00 inf =   5.517e-15 (0)
OPTIMAL LP SOLUTION FOUND
Integer optimization begins...
Long-step dual simplex will be used
+   307: mip =     not found yet >=              -inf        (1; 0)
+   593: >>>>>  -1.999962229e+00 >=  -1.999962229e+00 < 0.1% (287; 0)
+   593: mip =  -1.999962229e+00 >=     tree is empty   0.0% (0; 573)
INTEGER OPTIMAL SOLUTION FOUND
Time used:   1.1 secs
Memory used: 5.1 Mb (5341964 bytes)
